p min 188 594
n 1 3
n 176 -1
n 178 -1
n 180 -1
a 1 2 0 1 0
a 1 59 0 1 0
a 1 60 0 1 0
a 2 3 0 3 0
a 2 60 0 3 79840
a 2 111 0 3 -100
a 3 4 0 3 0
a 3 112 0 3 -100
a 3 184 0 1 0
a 4 5 0 3 0
a 4 113 0 3 -100
a 4 184 0 1 39199
a 5 6 0 3 0
a 5 114 0 3 -100
a 5 184 0 1 100664
a 6 7 0 3 0
a 6 115 0 3 -100
a 6 184 0 1 138312
a 7 8 0 3 0
a 7 61 0 3 79600
a 7 116 0 3 -100
a 7 182 0 1 0
a 7 184 0 1 197343
a 8 9 0 3 0
a 8 62 0 3 79561
a 8 117 0 3 -100
a 8 182 0 1 39199
a 8 184 0 1 233500
a 9 10 0 3 0
a 9 63 0 3 79521
a 9 118 0 3 -100
a 9 182 0 1 100664
a 9 183 0 1 0
a 9 184 0 1 290194
a 10 11 0 3 0
a 10 64 0 3 79481
a 10 119 0 3 -100
a 10 182 0 1 138312
a 10 183 0 1 39198
a 10 184 0 1 324919
a 11 12 0 3 0
a 11 65 0 3 79441
a 11 120 0 3 -100
a 11 182 0 1 197343
a 11 183 0 1 100663
a 11 184 0 1 379368
a 12 13 0 3 0
a 12 66 0 3 79402
a 12 121 0 3 -100
a 12 182 0 1 233500
a 12 183 0 1 138311
a 12 184 0 1 412718
a 13 14 0 3 0
a 13 67 0 3 79362
a 13 122 0 3 -100
a 13 182 0 1 290194
a 13 183 0 1 197342
a 13 184 0 1 465011
a 14 15 0 3 0
a 14 68 0 3 79322
a 14 123 0 3 -100
a 14 182 0 1 324919
a 14 183 0 1 233499
a 14 184 0 1 497040
a 15 16 0 3 0
a 15 69 0 3 79283
a 15 124 0 3 -100
a 15 182 0 1 379368
a 15 183 0 1 290193
a 15 184 0 1 547262
a 16 17 0 3 0
a 16 70 0 3 79243
a 16 125 0 3 -100
a 16 182 0 1 412718
a 16 183 0 1 324918
a 16 184 0 1 578023
a 17 18 0 3 0
a 17 71 0 3 79203
a 17 126 0 3 -100
a 17 182 0 1 465011
a 17 183 0 1 379367
a 17 184 0 1 626256
a 18 19 0 3 0
a 18 72 0 3 79164
a 18 127 0 3 -100
a 18 182 0 1 497040
a 18 183 0 1 412717
a 18 184 0 1 655798
a 19 20 0 3 0
a 19 73 0 3 79124
a 19 128 0 3 -100
a 19 182 0 1 547262
a 19 183 0 1 465010
a 20 21 0 3 0
a 20 74 0 3 79085
a 20 129 0 3 -100
a 20 182 0 1 578023
a 20 183 0 1 497039
a 21 22 0 3 0
a 21 75 0 3 79045
a 21 130 0 3 -100
a 21 182 0 1 626256
a 21 183 0 1 547261
a 22 23 0 3 0
a 22 76 0 3 79005
a 22 131 0 3 -100
a 22 182 0 1 655798
a 22 183 0 1 578022
a 23 24 0 3 0
a 23 77 0 3 78966
a 23 132 0 3 -100
a 23 182 0 1 702121
a 23 183 0 1 626255
a 24 25 0 3 0
a 24 78 0 3 78926
a 24 133 0 3 -100
a 24 183 0 1 655797
a 25 26 0 3 0
a 25 79 0 3 78887
a 25 134 0 3 -100
a 25 183 0 1 702120
a 26 27 0 3 0
a 26 83 0 3 78690
a 26 139 0 3 -100
a 27 28 0 3 0
a 27 84 0 3 78572
a 27 142 0 3 -100
a 27 185 0 1 0
a 28 29 0 3 0
a 28 85 0 3 78533
a 28 143 0 3 -100
a 28 185 0 1 39199
a 29 30 0 3 0
a 29 86 0 3 78493
a 29 144 0 3 -100
a 29 185 0 1 100664
a 30 31 0 3 0
a 30 87 0 3 78454
a 30 145 0 3 -100
a 30 185 0 1 138312
a 31 32 0 3 0
a 31 88 0 3 78415
a 31 146 0 3 -100
a 31 185 0 1 197343
a 32 33 0 3 0
a 32 89 0 3 78376
a 32 147 0 3 -100
a 32 185 0 1 233500
a 33 34 0 3 0
a 33 90 0 3 78337
a 33 148 0 3 -100
a 33 185 0 1 290194
a 34 35 0 3 0
a 34 91 0 3 78297
a 34 149 0 3 -100
a 34 185 0 1 324919
a 35 36 0 3 0
a 35 92 0 3 78258
a 35 150 0 3 -100
a 35 185 0 1 379368
a 36 37 0 3 0
a 36 93 0 3 78219
a 36 151 0 3 -100
a 36 185 0 1 412718
a 37 38 0 3 0
a 37 94 0 3 78180
a 37 152 0 3 -100
a 37 185 0 1 465011
a 37 187 0 1 0
a 38 39 0 3 0
a 38 95 0 3 78141
a 38 153 0 3 -100
a 38 185 0 1 497040
a 38 187 0 1 39198
a 39 40 0 3 0
a 39 96 0 3 78102
a 39 154 0 3 -100
a 39 185 0 1 547262
a 39 187 0 1 100663
a 40 41 0 3 0
a 40 97 0 3 78063
a 40 155 0 3 -100
a 40 185 0 1 578023
a 40 187 0 1 138311
a 41 42 0 3 0
a 41 98 0 3 78024
a 41 156 0 3 -100
a 41 185 0 1 626256
a 41 187 0 1 197342
a 42 43 0 3 0
a 42 99 0 3 77985
a 42 157 0 3 -100
a 42 185 0 1 655798
a 42 187 0 1 233499
a 43 44 0 3 0
a 43 100 0 3 77946
a 43 158 0 3 -100
a 43 185 0 1 702121
a 43 187 0 1 290193
a 44 45 0 3 0
a 44 101 0 3 77907
a 44 159 0 3 -100
a 44 185 0 1 730494
a 44 187 0 1 324918
a 45 46 0 3 0
a 45 160 0 3 -100
a 45 185 0 1 774983
a 45 187 0 1 379367
a 46 47 0 3 0
a 46 161 0 3 -100
a 46 185 0 1 802232
a 46 187 0 1 412717
a 47 48 0 3 0
a 47 162 0 3 -100
a 47 185 0 1 844959
a 47 187 0 1 465010
a 48 49 0 3 0
a 48 163 0 3 -100
a 48 185 0 1 871129
a 48 187 0 1 497039
a 49 50 0 3 0
a 49 164 0 3 -100
a 49 185 0 1 912164
a 49 187 0 1 547261
a 50 51 0 3 0
a 50 165 0 3 -100
a 50 185 0 1 937298
a 50 187 0 1 578022
a 51 52 0 3 0
a 51 166 0 3 -100
a 51 185 0 1 976708
a 51 187 0 1 626255
a 52 53 0 3 0
a 52 167 0 3 -100
a 52 185 0 1 1000847
a 52 187 0 1 655797
a 53 54 0 3 0
a 53 102 0 3 77557
a 53 168 0 3 -100
a 53 185 0 1 1038696
a 53 187 0 1 702120
a 54 55 0 3 0
a 54 103 0 3 77518
a 54 169 0 3 -100
a 54 185 0 1 1061879
a 54 187 0 1 730493
a 55 56 0 3 0
a 55 104 0 3 77479
a 55 170 0 3 -100
a 55 185 0 1 1098229
a 56 57 0 3 0
a 56 105 0 3 77441
a 56 171 0 3 -100
a 56 185 0 1 1120494
a 57 58 0 3 0
a 57 106 0 3 77402
a 57 172 0 3 -100
a 57 185 0 1 1155405
a 58 180 0 3 -100
a 59 5 0 3 79840
a 59 60 0 3 0
a 59 111 0 3 -100
a 60 9 0 3 79680
a 60 61 0 3 0
a 60 114 0 3 -100
a 61 15 0 3 79441
a 61 62 0 3 0
a 61 120 0 3 -100
a 61 181 0 1 0
a 62 16 0 3 79402
a 62 63 0 3 0
a 62 121 0 3 -100
a 62 181 0 1 39199
a 63 17 0 3 79362
a 63 64 0 3 0
a 63 122 0 3 -100
a 63 181 0 1 100664
a 64 18 0 3 79322
a 64 65 0 3 0
a 64 123 0 3 -100
a 64 181 0 1 138312
a 65 19 0 3 79283
a 65 66 0 3 0
a 65 124 0 3 -100
a 65 181 0 1 197343
a 66 20 0 3 79243
a 66 67 0 3 0
a 66 125 0 3 -100
a 66 181 0 1 233500
a 67 21 0 3 79203
a 67 68 0 3 0
a 67 126 0 3 -100
a 67 181 0 1 290194
a 68 22 0 3 79164
a 68 69 0 3 0
a 68 127 0 3 -100
a 68 181 0 1 324919
a 69 23 0 3 79124
a 69 70 0 3 0
a 69 128 0 3 -100
a 69 181 0 1 379368
a 70 24 0 3 79085
a 70 71 0 3 0
a 70 129 0 3 -100
a 70 181 0 1 412718
a 71 25 0 3 79045
a 71 72 0 3 0
a 71 130 0 3 -100
a 71 181 0 1 465011
a 72 73 0 3 0
a 72 131 0 3 -100
a 72 181 0 1 497040
a 73 74 0 3 0
a 73 132 0 3 -100
a 73 181 0 1 547262
a 74 75 0 3 0
a 74 133 0 3 -100
a 74 181 0 1 578023
a 75 76 0 3 0
a 75 134 0 3 -100
a 75 181 0 1 626256
a 76 26 0 3 78848
a 76 77 0 3 0
a 76 135 0 3 -100
a 76 181 0 1 655798
a 77 78 0 3 0
a 77 136 0 3 -100
a 77 181 0 1 702121
a 78 79 0 3 0
a 78 137 0 3 -100
a 78 181 0 1 730494
a 79 27 0 3 78729
a 79 80 0 3 0
a 79 138 0 3 -100
a 79 181 0 1 774983
a 80 28 0 3 78690
a 80 81 0 3 0
a 80 139 0 3 -100
a 80 181 0 1 802232
a 81 29 0 3 78651
a 81 82 0 3 0
a 81 140 0 3 -100
a 81 181 0 1 844959
a 82 30 0 3 78611
a 82 83 0 3 0
a 82 141 0 3 -100
a 82 181 0 1 871129
a 83 32 0 3 78533
a 83 84 0 3 0
a 83 143 0 3 -100
a 84 35 0 3 78415
a 84 85 0 3 0
a 84 146 0 3 -100
a 84 186 0 1 0
a 85 36 0 3 78376
a 85 86 0 3 0
a 85 147 0 3 -100
a 85 186 0 1 39199
a 86 37 0 3 78337
a 86 87 0 3 0
a 86 148 0 3 -100
a 86 186 0 1 100664
a 87 38 0 3 78297
a 87 88 0 3 0
a 87 149 0 3 -100
a 87 186 0 1 138312
a 88 39 0 3 78258
a 88 89 0 3 0
a 88 150 0 3 -100
a 88 186 0 1 197343
a 89 40 0 3 78219
a 89 90 0 3 0
a 89 151 0 3 -100
a 89 186 0 1 233500
a 90 41 0 3 78180
a 90 91 0 3 0
a 90 152 0 3 -100
a 90 186 0 1 290194
a 91 42 0 3 78141
a 91 92 0 3 0
a 91 153 0 3 -100
a 91 186 0 1 324919
a 92 43 0 3 78102
a 92 93 0 3 0
a 92 154 0 3 -100
a 92 186 0 1 379368
a 93 44 0 3 78063
a 93 94 0 3 0
a 93 155 0 3 -100
a 93 186 0 1 412718
a 94 45 0 3 78024
a 94 95 0 3 0
a 94 156 0 3 -100
a 94 186 0 1 465011
a 95 46 0 3 77985
a 95 96 0 3 0
a 95 157 0 3 -100
a 95 186 0 1 497040
a 96 47 0 3 77946
a 96 97 0 3 0
a 96 158 0 3 -100
a 96 186 0 1 547262
a 97 48 0 3 77907
a 97 98 0 3 0
a 97 159 0 3 -100
a 97 186 0 1 578023
a 98 49 0 3 77868
a 98 99 0 3 0
a 98 160 0 3 -100
a 98 186 0 1 626256
a 99 50 0 3 77829
a 99 100 0 3 0
a 99 161 0 3 -100
a 99 186 0 1 655798
a 100 51 0 3 77790
a 100 101 0 3 0
a 100 162 0 3 -100
a 100 186 0 1 702121
a 101 52 0 3 77751
a 101 102 0 3 0
a 101 163 0 3 -100
a 101 186 0 1 730494
a 102 103 0 3 0
a 102 172 0 3 -100
a 102 188 0 1 0
a 103 104 0 3 0
a 103 173 0 3 -100
a 103 188 0 1 39199
a 104 105 0 3 0
a 104 174 0 3 -100
a 104 188 0 1 100664
a 105 106 0 3 0
a 105 175 0 3 -100
a 105 188 0 1 138312
a 106 58 0 3 77247
a 106 107 0 3 0
a 106 176 0 3 -100
a 106 188 0 1 197343
a 107 108 0 3 0
a 107 177 0 3 -100
a 107 188 0 1 233500
a 108 109 0 3 0
a 108 178 0 3 -100
a 108 188 0 1 290194
a 109 110 0 3 0
a 109 179 0 3 -100
a 109 188 0 1 324919
a 110 180 0 3 -100
a 111 112 0 3 -100
a 112 111 0 3 39960
a 112 113 0 3 -100
a 113 112 0 3 19970
a 113 114 0 3 -100
a 114 113 0 3 19960
a 114 115 0 3 -100
a 115 114 0 3 19950
a 115 116 0 3 -100
a 116 115 0 3 19940
a 116 117 0 3 -100
a 117 116 0 3 19930
a 117 118 0 3 -100
a 118 117 0 3 19920
a 118 119 0 3 -100
a 119 118 0 3 19910
a 119 120 0 3 -100
a 120 119 0 3 19900
a 120 121 0 3 -100
a 121 120 0 3 19890
a 121 122 0 3 -100
a 122 121 0 3 19880
a 122 123 0 3 -100
a 123 122 0 3 19870
a 123 124 0 3 -100
a 124 123 0 3 19860
a 124 125 0 3 -100
a 125 124 0 3 19850
a 125 126 0 3 -100
a 126 125 0 3 19840
a 126 127 0 3 -100
a 127 126 0 3 19830
a 127 128 0 3 -100
a 128 127 0 3 19820
a 128 129 0 3 -100
a 129 128 0 3 19810
a 129 130 0 3 -100
a 130 129 0 3 19800
a 130 131 0 3 -100
a 131 130 0 3 19791
a 131 132 0 3 -100
a 132 131 0 3 19781
a 132 133 0 3 -100
a 133 132 0 3 19771
a 133 134 0 3 -100
a 134 133 0 3 19761
a 134 135 0 3 -100
a 135 134 0 3 19751
a 135 136 0 3 -100
a 136 135 0 3 19741
a 136 137 0 3 -100
a 137 136 0 3 19731
a 137 138 0 3 -100
a 138 137 0 3 19721
a 138 139 0 3 -100
a 139 138 0 3 19712
a 139 140 0 3 -100
a 140 139 0 3 19702
a 140 141 0 3 -100
a 141 140 0 3 19692
a 141 142 0 3 -100
a 142 141 0 3 19682
a 142 143 0 3 -100
a 143 142 0 3 19672
a 143 144 0 3 -100
a 144 143 0 3 19662
a 144 145 0 3 -100
a 145 144 0 3 19652
a 145 146 0 3 -100
a 146 145 0 3 19643
a 146 147 0 3 -100
a 147 146 0 3 19633
a 147 148 0 3 -100
a 148 147 0 3 19623
a 148 149 0 3 -100
a 149 148 0 3 19613
a 149 150 0 3 -100
a 150 149 0 3 19603
a 150 151 0 3 -100
a 151 150 0 3 19594
a 151 152 0 3 -100
a 152 151 0 3 19584
a 152 153 0 3 -100
a 153 152 0 3 19574
a 153 154 0 3 -100
a 154 153 0 3 19564
a 154 155 0 3 -100
a 155 154 0 3 19554
a 155 156 0 3 -100
a 156 155 0 3 19545
a 156 157 0 3 -100
a 157 156 0 3 19535
a 157 158 0 3 -100
a 158 157 0 3 19525
a 158 159 0 3 -100
a 159 158 0 3 19515
a 159 160 0 3 -100
a 160 159 0 3 19506
a 160 161 0 3 -100
a 161 160 0 3 19496
a 161 162 0 3 -100
a 162 161 0 3 19486
a 162 163 0 3 -100
a 163 162 0 3 19476
a 163 164 0 3 -100
a 164 163 0 3 19467
a 164 165 0 3 -100
a 165 164 0 3 19457
a 165 166 0 3 -100
a 166 165 0 3 19447
a 166 167 0 3 -100
a 167 166 0 3 19437
a 167 168 0 3 -100
a 168 167 0 3 19428
a 168 169 0 3 -100
a 169 168 0 3 19418
a 169 170 0 3 -100
a 170 169 0 3 19408
a 170 171 0 3 -100
a 171 170 0 3 19399
a 171 172 0 3 -100
a 172 171 0 3 19389
a 172 173 0 3 -100
a 173 172 0 3 19379
a 173 174 0 3 -100
a 174 173 0 3 19369
a 174 175 0 3 -100
a 175 174 0 3 19360
a 175 176 0 3 -100
a 176 175 0 3 19350
a 176 177 0 3 -100
a 177 176 0 3 19340
a 177 178 0 3 -100
a 178 177 0 3 19331
a 178 179 0 3 -100
a 179 178 0 3 19321
a 179 180 0 3 -100
a 180 179 0 3 19311
a 181 83 0 1 -895431
a 182 26 0 1 -717842
a 183 82 0 1 -717028
a 184 24 0 1 -659243
a 185 103 0 1 -1181028
a 186 110 0 1 -766122
a 187 58 0 1 -763780
a 188 110 0 1 -494344
